Calculando min-max:
Criando instancia min-C...
Instancia criada.
Resolvendo instancia...
GLPSOL--GLPK LP/MIP Solver 5.0
Parameter(s) specified in the command line:
 --write /tmp/tmp91tluu7t.glpk.raw --wglp /tmp/tmpsmndvc5q.glpk.glp --cpxlp
 /tmp/tmp8_8dhhu9.pyomo.lp
Reading problem data from '/tmp/tmp8_8dhhu9.pyomo.lp'...
/tmp/tmp8_8dhhu9.pyomo.lp:50870: warning: lower bound of variable 'x2' redefined
/tmp/tmp8_8dhhu9.pyomo.lp:50870: warning: upper bound of variable 'x2' redefined
8244 rows, 5231 columns, 20785 non-zeros
5231 integer variables, 5220 of which are binary
56090 lines were read
Writing problem data to '/tmp/tmpsmndvc5q.glpk.glp'...
38960 lines were written
GLPK Integer Optimizer 5.0
8244 rows, 5231 columns, 20785 non-zeros
5231 integer variables, 5220 of which are binary
Preprocessing...
99 hidden packing inequaliti(es) were detected
723 hidden covering inequaliti(es) were detected
73 constraint coefficient(s) were reduced
3436 rows, 1711 columns, 8975 non-zeros
1711 integer variables, 1701 of which are binary
Scaling...
 A: min|aij| =  1.000e+00  max|aij| =  1.500e+01  ratio =  1.500e+01
GM: min|aij| =  5.181e-01  max|aij| =  1.930e+00  ratio =  3.726e+00
EQ: min|aij| =  2.790e-01  max|aij| =  1.000e+00  ratio =  3.584e+00
2N: min|aij| =  2.500e-01  max|aij| =  1.375e+00  ratio =  5.500e+00
Constructing initial basis...
Size of triangular part is 3436
Solving LP relaxation...
GLPK Simplex Optimizer 5.0
3436 rows, 1711 columns, 8975 non-zeros
      0: obj =   0.000000000e+00 inf =   5.725e+01 (77)
    473: obj =   6.775000000e+01 inf =   0.000e+00 (0) 2
*   796: obj =   4.416666667e-01 inf =   3.031e-14 (0) 2
OPTIMAL LP SOLUTION FOUND
Integer optimization begins...
Long-step dual simplex will be used
+   796: mip =     not found yet >=              -inf        (1; 0)
+  2067: >>>>>   5.000000000e+00 >=   5.000000000e+00   0.0% (26; 17)
+  2067: mip =   5.000000000e+00 >=     tree is empty   0.0% (0; 83)
INTEGER OPTIMAL SOLUTION FOUND
Time used:   0.3 secs
Memory used: 7.5 Mb (7822459 bytes)
Writing MIP solution to '/tmp/tmp91tluu7t.glpk.raw'...
13484 lines were written
Maximos: {'E': 7.6198, 'C': 73}
Minimos: {'E': 0.611782, 'C': 5.0}
Resolvendo instancia...
GLPSOL--GLPK LP/MIP Solver 5.0
Parameter(s) specified in the command line:
 --write /tmp/tmpnln290t7.glpk.raw --wglp /tmp/tmp6qr6psfr.glpk.glp --cpxlp
 /tmp/tmpep3pe_nd.pyomo.lp
Reading problem data from '/tmp/tmpep3pe_nd.pyomo.lp'...
/tmp/tmpep3pe_nd.pyomo.lp:50802: warning: lower bound of variable 'x3' redefined
/tmp/tmpep3pe_nd.pyomo.lp:50802: warning: upper bound of variable 'x3' redefined
8244 rows, 5232 columns, 20785 non-zeros
5231 integer variables, 5220 of which are binary
56022 lines were read
Writing problem data to '/tmp/tmp6qr6psfr.glpk.glp'...
38893 lines were written
GLPK Integer Optimizer 5.0
8244 rows, 5232 columns, 20785 non-zeros
5231 integer variables, 5220 of which are binary
Preprocessing...
99 hidden packing inequaliti(es) were detected
723 hidden covering inequaliti(es) were detected
73 constraint coefficient(s) were reduced
3436 rows, 1711 columns, 8975 non-zeros
1711 integer variables, 1701 of which are binary
Scaling...
 A: min|aij| =  1.000e+00  max|aij| =  1.500e+01  ratio =  1.500e+01
GM: min|aij| =  5.181e-01  max|aij| =  1.930e+00  ratio =  3.726e+00
EQ: min|aij| =  2.790e-01  max|aij| =  1.000e+00  ratio =  3.584e+00
2N: min|aij| =  2.500e-01  max|aij| =  1.375e+00  ratio =  5.500e+00
Constructing initial basis...
Size of triangular part is 3436
Solving LP relaxation...
GLPK Simplex Optimizer 5.0
3436 rows, 1711 columns, 8975 non-zeros
      0: obj =  -8.729743559e-02 inf =   5.725e+01 (77)
Perturbing LP to avoid stalling [394]...
    536: obj =   5.216753778e-01 inf =   9.500e-09 (0) 2
Removing LP perturbation [740]...
*   740: obj =   3.326171241e-18 inf =   1.742e-14 (0) 2
OPTIMAL LP SOLUTION FOUND
Integer optimization begins...
Long-step dual simplex will be used
+   740: mip =     not found yet >=              -inf        (1; 0)
+  1098: >>>>>   2.490540802e-18 >=   0.000000000e+00   1.6% (18; 1)
+  1098: mip =   2.490540802e-18 >=     tree is empty   0.0% (0; 37)
INTEGER OPTIMAL SOLUTION FOUND
Time used:   0.2 secs
Memory used: 7.1 Mb (7478395 bytes)
Writing MIP solution to '/tmp/tmpnln290t7.glpk.raw'...
13485 lines were written

Resultados:

E: 0.0 -- 0.611782 mA
C: 0.0 -- 5.0 points
WEIGHTED: 0.0
Total Solving time: 0.1939542293548584 s
Total elapsed time since execution: 1.595123529434204
